NAME : B-n41-k6
COMMENT : (Augerat et al, No of trucks: 6, Optimal value: 829)
TYPE : CVRP
DIMENSION : 41
EDGE_WEIGHT_TYPE : EUC_2D 
CAPACITY : 100
NODE_COORD_SECTION 
 1 37 35
 2 61 78
 3 18 33
 4 10 7
 5 48 26
 6 96 58
 7 16 97
 8 102 67
 9 97 67
 10 20 17
 11 110 77
 12 26 101
 13 102 74
 14 98 64
 15 71 82
 16 101 60
 17 104 69
 18 70 85
 19 17 9
 20 56 34
 21 105 69
 22 20 8
 23 103 63
 24 105 76
 25 25 35
 26 28 43
 27 58 36
 28 56 32
 29 65 87
 30 70 80
 31 100 65
 32 102 61
 33 99 73
 34 24 103
 35 26 107
 36 21 39
 37 99 71
 38 20 16
 39 56 30
 40 51 31
 41 106 70
DEMAND_SECTION 
1 0 
2 6 
3 11 
4 14 
5 7 
6 12 
7 16 
8 6 
9 18 
10 7 
11 20 
12 7 
13 23 
14 16 
15 10 
16 9 
17 18 
18 8 
19 15 
20 9 
21 23 
22 7 
23 15 
24 14 
25 21 
26 25 
27 14 
28 11 
29 19 
30 12 
31 8 
32 25 
33 17 
34 22 
35 11 
36 16 
37 16 
38 8 
39 23 
40 15 
41 13 
DEPOT_SECTION 
 1  
 -1  
EOF 
